c Result of efficient AIG-to-CNF conversion using package CNF
p cnf 496 1832
-2 3 301 352 396 0
2 -396 0
2 -3 0
2 -352 0
2 -301 0
-3 4 227 239 253 0
-3 -4 -227 239 253 0
3 -253 0
3 -4 227 0
3 -239 0
3 4 -227 0
4 5 174 211 -214 0
-4 214 0
-4 -5 0
-4 -211 0
-4 -174 0
-5 82 156 171 0
-5 -6 82 156 0
5 -82 0
5 -156 0
5 6 -171 0
6 -495 7 35 -76 0
-6 76 0
-6 -35 0
-6 495 0
-6 -7 0
7 491 -8 23 0
7 -491 23 -34 0
-7 -23 0
-7 -491 34 0
-7 491 8 0
8 492 -9 0
8 -492 -16 0
-8 -492 16 0
-8 492 9 0
9 493 -10 0
9 -493 -13 0
-9 -493 13 0
-9 493 10 0
10 494 -11 0
10 -494 -12 0
-10 -494 12 0
-10 494 11 0
11 -477 -495 0
11 -476 495 0
-11 476 495 0
-11 477 -495 0
12 -479 -495 0
12 -478 495 0
-12 478 495 0
-12 479 -495 0
13 494 -14 0
13 -494 -15 0
-13 -494 15 0
-13 494 14 0
14 -481 -495 0
14 -480 495 0
-14 480 495 0
-14 481 -495 0
15 -483 -495 0
15 -482 495 0
-15 482 495 0
-15 483 -495 0
16 493 -17 0
16 -493 -20 0
-16 -493 20 0
-16 493 17 0
17 494 -18 0
17 -494 -19 0
-17 -494 19 0
-17 494 18 0
18 -485 -495 0
18 -484 495 0
-18 484 495 0
-18 485 -495 0
19 -487 -495 0
19 -486 495 0
-19 486 495 0
-19 487 -495 0
20 494 -21 0
20 -494 -22 0
-20 -494 22 0
-20 494 21 0
21 -489 -495 0
21 -488 495 0
-21 488 495 0
-21 489 -495 0
22 -491 -495 0
22 -490 495 0
-22 490 495 0
-22 491 -495 0
-23 24 30 32 33 0
23 -33 0
23 -24 0
23 -32 0
23 -30 0
-24 488 489 25 27 0
24 -488 0
24 -27 0
24 -25 0
24 -489 0
-25 480 486 487 26 0
25 -26 0
25 -487 0
25 -480 0
25 -486 0
-26 484 485 490 0
26 -484 0
26 -490 0
26 -485 0
-27 481 482 483 28 0
27 -28 0
27 -483 0
27 -481 0
27 -482 0
-28 476 477 29 0
28 -29 0
28 -477 0
28 -476 0
-29 472 473 478 479 0
29 -479 0
29 -478 0
29 -472 0
29 -473 0
-30 470 474 475 31 0
30 -31 0
30 -475 0
30 -470 0
30 -474 0
-31 468 469 0
31 -468 0
31 -469 0
-32 464 471 0
32 -464 0
32 -471 0
-33 465 466 467 0
33 -465 0
33 -467 0
33 -466 0
34 492 493 -494 0
-34 494 0
-34 -493 0
-34 -492 0
35 36 -58 71 0
35 491 36 -58 0
-35 58 0
-35 -36 0
-35 -491 -71 0
36 -37 -52 0
-36 37 0
-36 52 0
37 -495 -38 0
-37 495 0
-37 38 0
38 492 39 -45 0
38 -492 39 -40 0
-38 -39 0
-38 -492 40 0
-38 492 45 0
-39 491 23 0
39 -491 0
39 -23 0
40 -493 -494 0
40 493 -41 0
40 -493 -44 0
-40 493 41 0
-40 -493 494 44 0
41 494 -42 0
41 -494 -43 0
-41 -494 43 0
-41 494 42 0
42 -488 -495 0
42 -487 495 0
-42 487 495 0
-42 488 -495 0
43 -490 -495 0
43 -489 495 0
-43 489 495 0
-43 490 -495 0
44 -492 -495 0
44 -491 495 0
-44 491 495 0
-44 492 -495 0
45 493 -46 0
45 -493 -49 0
-45 -493 49 0
-45 493 46 0
46 494 -47 0
46 -494 -48 0
-46 -494 48 0
-46 494 47 0
47 -480 -495 0
47 -479 495 0
-47 479 495 0
-47 480 -495 0
48 -482 -495 0
48 -481 495 0
-48 481 495 0
-48 482 -495 0
49 494 -50 0
49 -494 -51 0
-49 -494 51 0
-49 494 50 0
50 -484 -495 0
50 -483 495 0
-50 483 495 0
-50 484 -495 0
51 -486 -495 0
51 -485 495 0
-51 485 495 0
-51 486 -495 0
52 -494 -53 0
-52 494 0
-52 53 0
53 39 -54 0
-53 -39 0
-53 54 0
54 492 -55 0
54 -492 -56 0
-54 -492 56 0
-54 492 55 0
55 493 -13 0
55 -493 -17 0
-55 -493 17 0
-55 493 13 0
56 493 -20 0
56 -493 -57 0
-56 -493 57 0
-56 493 20 0
-57 493 494 -495 0
-57 492 494 495 0
57 -494 0
57 -492 495 0
57 -493 -495 0
58 -491 23 -67 0
58 491 23 -59 0
-58 -23 0
-58 -491 67 0
-58 491 59 0
59 492 -60 0
59 -492 -64 0
-59 -492 64 0
-59 492 60 0
60 493 -61 0
60 -493 -63 0
-60 -493 63 0
-60 493 61 0
61 -494 -11 0
61 494 -62 0
-61 494 62 0
-61 -494 11 0
62 -475 -495 0
62 -474 495 0
-62 474 495 0
-62 475 -495 0
63 494 -12 0
63 -494 -14 0
-63 -494 14 0
-63 494 12 0
64 493 -65 0
64 -493 -66 0
-64 -493 66 0
-64 493 65 0
65 494 -15 0
65 -494 -18 0
-65 -494 18 0
-65 494 15 0
66 494 -19 0
66 -494 -21 0
-66 -494 21 0
-66 494 19 0
67 492 -68 0
-67 -492 0
-67 68 0
68 493 -69 0
68 -493 494 -495 0
-68 -493 -494 0
-68 493 69 0
-68 -493 495 0
69 494 -22 0
69 -494 -70 0
-69 -494 70 0
-69 494 22 0
70 -493 -495 0
70 -492 495 0
-70 492 495 0
-70 493 -495 0
71 -491 23 -75 0
71 491 23 -72 0
-71 -23 0
-71 -491 75 0
-71 491 72 0
72 492 -73 0
72 -492 -74 0
-72 -492 74 0
-72 492 73 0
73 493 -63 0
73 -493 -65 0
-73 -493 65 0
-73 493 63 0
74 493 -66 0
74 -493 -69 0
-74 -493 69 0
-74 493 66 0
75 492 493 494 -495 0
-75 495 0
-75 -494 0
-75 -492 0
-75 -493 0
76 -491 23 -81 0
76 491 23 -77 0
-76 -23 0
-76 -491 81 0
-76 491 77 0
77 -492 -55 0
77 492 -78 0
-77 492 78 0
-77 -492 55 0
78 -493 -10 0
78 493 -79 0
-78 493 79 0
-78 -493 10 0
79 -494 -62 0
79 494 -80 0
-79 494 80 0
-79 -494 62 0
80 -473 -495 0
80 -472 495 0
-80 472 495 0
-80 473 -495 0
81 492 -56 0
-81 -492 0
-81 56 0
-82 -6 136 0
-82 83 136 149 0
82 -136 0
82 6 -83 0
82 6 -149 0
-83 84 100 107 0
83 -84 0
83 -107 0
83 -100 0
84 -491 23 -97 0
84 491 23 -85 0
-84 -23 0
-84 -491 97 0
-84 491 85 0
85 492 -86 0
85 -492 -93 0
-85 -492 93 0
-85 492 86 0
86 493 -87 0
86 -493 -90 0
-86 -493 90 0
-86 493 87 0
87 494 -88 0
87 -494 -89 0
-87 -494 89 0
-87 494 88 0
88 -470 -495 0
88 -469 495 0
-88 469 495 0
-88 470 -495 0
89 -472 -495 0
89 -471 495 0
-89 471 495 0
-89 472 -495 0
90 494 -91 0
90 -494 -92 0
-90 -494 92 0
-90 494 91 0
91 -474 -495 0
91 -473 495 0
-91 473 495 0
-91 474 -495 0
92 -476 -495 0
92 -475 495 0
-92 475 495 0
-92 476 -495 0
93 493 -94 0
93 -493 -96 0
-93 -493 96 0
-93 493 94 0
94 -494 -47 0
94 494 -95 0
-94 494 95 0
-94 -494 47 0
95 -478 -495 0
95 -477 495 0
-95 477 495 0
-95 478 -495 0
96 494 -48 0
96 -494 -50 0
-96 -494 50 0
-96 494 48 0
97 492 -493 -99 0
97 492 493 -98 0
-97 -492 0
-97 -493 99 0
-97 493 98 0
98 -494 -42 0
98 494 -51 0
-98 494 51 0
-98 -494 42 0
99 494 -43 0
99 -494 -44 0
-99 -494 44 0
-99 494 43 0
100 -491 23 -105 0
100 491 23 -101 0
-100 -23 0
-100 -491 105 0
-100 491 101 0
-101 -492 73 0
-101 492 102 0
101 -492 -73 0
101 492 -102 0
-102 493 103 0
-102 -493 61 0
102 -493 -61 0
102 493 -103 0
103 -494 -80 0
103 494 -104 0
-103 494 104 0
-103 -494 80 0
104 -471 -495 0
104 -470 495 0
-104 470 495 0
-104 471 -495 0
105 492 -74 0
105 -492 -106 0
-105 -492 106 0
-105 492 74 0
106 493 494 -495 0
-106 495 0
-106 -494 0
-106 -493 0
107 -6 108 0
107 -495 108 -130 0
-107 -108 0
-107 6 130 0
-107 495 6 0
108 -109 -122 0
-108 109 0
-108 122 0
109 -495 -110 0
-109 495 0
-109 110 0
110 -491 23 -118 0
110 491 23 -111 0
-110 -23 0
-110 -491 118 0
-110 491 111 0
-111 492 112 0
-111 -492 116 0
111 -492 -116 0
111 492 -112 0
-112 493 113 0
-112 -493 115 0
112 -493 -115 0
112 493 -113 0
-113 494 114 0
-113 -494 88 0
113 -494 -88 0
113 494 -114 0
114 -468 -495 0
114 -467 495 0
-114 467 495 0
-114 468 -495 0
115 494 -89 0
115 -494 -91 0
-115 -494 91 0
-115 494 89 0
116 -493 -46 0
116 493 -117 0
-116 493 117 0
-116 -493 46 0
117 494 -92 0
117 -494 -95 0
-117 -494 95 0
-117 494 92 0
118 492 -119 0
118 -492 -120 0
-118 -492 120 0
-118 492 119 0
119 -493 -41 0
119 493 -49 0
-119 493 49 0
-119 -493 41 0
120 493 -121 0
-120 -493 0
-120 121 0
121 -493 -494 0
121 494 -44 0
121 -494 -495 0
-121 494 44 0
-121 493 -494 495 0
122 -494 -123 0
-122 494 0
-122 123 0
123 -491 23 -128 0
123 491 23 -124 0
-123 -23 0
-123 -491 128 0
-123 491 124 0
-124 -492 9 0
-124 492 125 0
124 -492 -9 0
124 492 -125 0
-125 493 126 0
-125 -493 79 0
125 -493 -79 0
125 493 -126 0
126 -494 -104 0
126 494 -127 0
-126 494 127 0
-126 -494 104 0
127 -469 -495 0
127 -468 495 0
-127 468 495 0
-127 469 -495 0
128 492 -16 0
128 -492 -129 0
-128 -492 129 0
-128 492 16 0
129 493 -494 0
129 -492 493 495 0
-129 -493 0
-129 494 -495 0
-129 492 494 0
130 -491 23 -135 0
130 491 23 -131 0
-130 -23 0
-130 -491 135 0
-130 491 131 0
-131 -492 60 0
-131 492 132 0
131 -492 -60 0
131 492 -132 0
-132 -493 103 0
-132 493 133 0
132 -493 -103 0
132 493 -133 0
-133 494 134 0
-133 -494 127 0
133 -494 -127 0
133 494 -134 0
134 -467 -495 0
134 -466 495 0
-134 466 495 0
-134 467 -495 0
135 492 -64 0
135 -492 -68 0
-135 -492 68 0
-135 492 64 0
136 493 -137 0
136 137 -143 0
-136 -493 -137 0
-136 137 143 0
137 -491 23 -141 0
137 491 23 -138 0
-137 -23 0
-137 -491 141 0
-137 491 138 0
138 492 -139 0
138 -492 -140 0
-138 -492 140 0
-138 492 139 0
139 493 -90 0
139 -493 -94 0
-139 -493 94 0
-139 493 90 0
140 493 -96 0
140 -493 -98 0
-140 -493 98 0
-140 493 96 0
141 492 -142 0
-141 -492 0
-141 142 0
-142 -493 -494 0
-142 493 99 0
-142 -493 -495 0
142 493 -99 0
142 -493 494 495 0
143 494 -144 0
143 144 -148 0
-143 -494 -144 0
-143 144 148 0
144 -491 23 -147 0
144 491 23 -145 0
-144 -23 0
-144 -491 147 0
-144 491 145 0
145 -492 -45 0
145 492 -146 0
-145 492 146 0
-145 -492 45 0
146 493 -115 0
146 -493 -117 0
-146 -493 117 0
-146 493 115 0
147 492 -40 0
-147 -492 0
-147 40 0
148 -493 -76 0
-148 493 0
-148 76 0
-149 -84 148 0
-149 144 148 150 0
149 -148 0
149 84 -150 0
149 84 -144 0
150 6 151 -155 0
150 6 -84 151 0
-150 -6 0
-150 -151 0
-150 84 155 0
151 6 -152 0
-151 -6 0
-151 152 0
152 -6 -153 0
152 148 -153 0
-152 153 0
-152 6 -148 0
-153 100 154 0
153 -100 0
153 -154 0
154 -494 -144 0
-154 494 0
-154 144 0
155 109 -122 0
155 -109 122 0
-155 -109 -122 0
-155 109 122 0
156 6 -157 0
156 6 -123 164 0
156 6 123 -164 0
-156 -6 0
-156 -123 157 -164 0
-156 123 157 164 0
157 -494 -158 0
-157 494 0
-157 158 0
158 -491 23 -163 0
158 491 23 -159 0
-158 -23 0
-158 -491 163 0
-158 491 159 0
-159 -492 139 0
-159 492 160 0
159 -492 -139 0
159 492 -160 0
-160 -493 87 0
-160 493 161 0
160 -493 -87 0
160 493 -161 0
-161 494 162 0
-161 -494 114 0
161 -494 -114 0
161 494 -162 0
162 -466 -495 0
162 -465 495 0
-162 465 495 0
-162 466 -495 0
163 492 -140 0
163 -492 -142 0
-163 -492 142 0
-163 492 140 0
-164 110 165 0
-164 -493 110 -130 0
164 -110 0
164 493 -165 0
164 130 -165 0
165 108 -157 0
165 -495 108 -166 0
-165 -108 0
-165 157 166 0
-165 495 157 0
166 491 23 -167 0
166 -491 23 -54 0
-166 -23 0
-166 491 167 0
-166 -491 54 0
-167 -492 78 0
-167 492 168 0
167 -492 -78 0
167 492 -168 0
-168 -493 126 0
-168 493 169 0
168 -493 -126 0
168 493 -169 0
-169 494 170 0
-169 -494 134 0
169 -494 -134 0
169 494 -170 0
170 -465 -495 0
170 -464 495 0
-170 464 495 0
-170 465 -495 0
-171 84 108 152 172 0
171 -172 0
171 -152 0
171 -84 0
171 -108 0
172 157 -173 0
-172 -157 0
-172 173 0
173 -123 -164 0
-173 123 0
-173 164 0
-174 175 207 0
174 -175 0
174 -207 0
-175 7 176 182 183 0
175 -7 0
175 -183 0
175 -182 0
175 -176 0
-176 35 177 178 181 0
176 -181 0
176 -178 0
176 -35 0
176 -177 0
177 -493 -137 0
-177 493 0
-177 137 0
178 -491 23 -180 0
178 491 23 -179 0
-178 -23 0
-178 -491 180 0
-178 491 179 0
179 492 -116 0
179 -492 -119 0
-179 -492 119 0
-179 492 116 0
180 492 -120 0
-180 -492 0
-180 120 0
181 -494 -76 6 0
-181 494 0
-181 76 0
-181 -6 0
-182 7 38 71 0
-182 495 7 38 0
182 -38 0
182 -7 0
182 -495 -71 0
-183 52 35 184 192 0
183 -52 0
183 -192 0
183 -184 0
183 -35 0
-184 185 186 -189 0
-184 185 186 188 0
184 -185 0
184 -186 0
184 -188 189 0
185 -495 -7 0
-185 495 0
-185 7 0
186 -493 -187 0
-186 493 0
-186 187 0
187 39 -163 0
-187 -39 0
-187 163 0
-188 -36 187 0
-188 -53 -71 187 0
-188 53 71 187 0
188 -187 0
188 53 36 -71 0
188 -53 36 71 0
189 -190 -191 0
-189 190 0
-189 191 0
-190 -36 186 0
-190 38 186 0
190 -186 0
190 -38 36 0
191 39 -135 0
-191 -39 0
-191 135 0
-192 193 194 195 199 0
192 -194 0
192 -195 0
192 -193 0
192 -199 0
193 -494 -187 0
-193 494 0
-193 187 0
-194 190 191 0
194 -190 0
194 -191 0
195 196 -198 0
-195 -196 0
-195 198 0
-196 193 197 0
196 -193 0
196 -197 0
197 -494 -191 0
-197 494 0
-197 191 0
198 39 -128 0
-198 -39 0
-198 128 0
-199 492 189 201 0
-199 189 200 201 0
199 -201 0
199 -189 0
199 -492 -200 0
200 39 -105 0
-200 -39 0
-200 105 0
-201 193 202 204 205 0
201 -202 0
201 -205 0
201 -193 0
201 -204 0
-202 197 203 0
202 -197 0
202 -203 0
203 -493 -200 0
-203 493 0
-203 200 0
204 39 -147 0
-204 -39 0
-204 147 0
205 204 -206 0
205 -493 -200 -206 0
205 493 -200 204 0
-205 -493 206 0
-205 200 -204 0
-205 200 206 0
-205 493 -204 0
206 39 -81 0
-206 -39 0
-206 81 0
-207 177 154 208 210 0
207 -210 0
207 -208 0
207 -177 0
207 -154 0
208 76 -209 0
208 493 -76 0
208 -493 76 -100 0
-208 -493 -76 0
-208 76 100 209 0
-208 493 76 209 0
-209 84 123 0
-209 495 84 0
209 -84 0
209 -495 -123 0
-210 58 185 6 151 0
210 -151 0
210 -6 0
210 -58 0
210 -185 0
-211 196 212 0
211 -196 0
211 -212 0
212 193 -213 0
212 -37 189 193 0
-212 -193 0
-212 -189 213 0
-212 37 213 0
213 39 -118 0
-213 -39 0
-213 118 0
214 215 -223 0
-214 -215 0
-214 223 0
-215 216 219 0
215 -216 0
215 -219 0
216 217 -218 0
-216 -217 0
-216 218 0
217 39 -180 0
-217 -39 0
-217 180 0
218 492 493 -494 39 0
-218 -492 0
-218 -39 0
-218 494 0
-218 -493 0
-219 220 217 221 222 0
219 -222 0
219 -221 0
219 -220 0
219 -217 0
220 203 -204 0
-220 -203 0
-220 204 0
221 39 -141 0
-221 -39 0
-221 141 0
222 39 -67 0
-222 -39 0
-222 67 0
223 217 -224 0
223 -217 -226 0
-223 -217 226 0
-223 217 224 0
224 -440 225 0
224 -438 -225 0
-224 440 225 0
-224 438 -225 0
225 39 -75 0
-225 -39 0
-225 75 0
226 -432 225 0
-226 432 0
-226 -225 0
227 218 -224 228 0
227 -218 -226 228 0
-227 -228 0
-227 -218 226 0
-227 218 224 0
-228 217 229 0
228 -217 0
228 -229 0
-229 206 230 237 238 0
229 -206 0
229 -238 0
229 -237 0
229 -230 0
-230 123 231 235 236 0
230 -123 0
230 -236 0
230 -235 0
230 -231 0
-231 58 137 232 233 0
231 -58 0
231 -233 0
231 -232 0
231 -137 0
-232 71 110 200 0
232 -71 0
232 -200 0
232 -110 0
-233 76 144 213 234 0
233 -234 0
233 -213 0
233 -76 0
233 -144 0
-234 130 158 0
234 -130 0
234 -158 0
-235 7 84 178 198 0
235 -198 0
235 -178 0
235 -7 0
235 -84 0
-236 100 166 0
236 -100 0
236 -166 0
-237 53 36 187 191 0
237 -191 0
237 -187 0
237 -53 0
237 -36 0
-238 221 222 0
238 -221 0
238 -222 0
-239 240 245 -247 -252 0
-239 -240 -245 -247 -252 0
-239 240 245 247 252 0
-239 -240 -245 247 252 0
239 240 -245 0
239 -240 245 0
239 247 -252 0
239 -247 252 0
240 5 174 211 -241 0
-240 241 0
-240 -5 0
-240 -211 0
-240 -174 0
241 -216 219 -244 0
241 216 219 -242 0
-241 -219 0
-241 -216 244 0
-241 216 242 0
-242 217 243 0
-242 -217 224 0
242 -217 -224 0
242 217 -243 0
243 -448 225 0
243 -446 -225 0
-243 448 225 0
-243 446 -225 0
244 217 -226 0
-244 -217 0
-244 226 0
245 -217 228 0
245 228 -246 0
-245 -228 0
-245 217 246 0
246 -218 -224 0
246 218 -243 0
-246 218 243 0
-246 -218 224 0
247 5 174 211 -248 0
-247 248 0
-247 -5 0
-247 -211 0
-247 -174 0
248 215 -249 0
-248 -215 0
-248 249 0
249 217 -250 0
249 -217 -251 0
-249 -217 251 0
-249 217 250 0
250 -444 225 0
250 -442 -225 0
-250 444 225 0
-250 442 -225 0
251 -436 225 0
251 -434 -225 0
-251 436 225 0
-251 434 -225 0
252 -218 228 -251 0
252 218 228 -250 0
-252 -228 0
-252 -218 251 0
-252 218 250 0
-253 254 259 261 277 0
-253 -254 -259 261 277 0
253 -277 0
253 -254 259 0
253 -261 0
253 254 -259 0
254 5 174 211 -255 0
-254 255 0
-254 -5 0
-254 -211 0
-254 -174 0
255 216 219 -256 0
255 -216 219 -249 0
-255 -219 0
-255 -216 249 0
-255 216 256 0
256 217 -257 0
256 -217 -258 0
-256 -217 258 0
-256 217 257 0
257 -460 225 0
257 -458 -225 0
-257 460 225 0
-257 458 -225 0
258 -452 225 0
258 -450 -225 0
-258 452 225 0
-258 450 -225 0
259 217 229 -260 0
259 -217 229 -251 0
-259 -229 0
-259 -217 251 0
-259 217 260 0
260 218 -257 0
260 -218 -258 0
-260 -218 258 0
-260 218 257 0
-261 262 -267 -275 0
-261 262 267 275 0
261 -262 0
261 -267 275 0
261 267 -275 0
262 5 174 -263 264 0
-262 263 0
-262 -264 0
-262 -5 0
-262 -174 0
263 211 217 215 -226 0
-263 226 0
-263 -211 0
-263 -215 0
-263 -217 0
264 218 -226 265 266 0
-264 -218 0
-264 -266 0
-264 -265 0
-264 226 0
-265 206 217 238 0
265 -238 0
265 -217 0
265 -206 0
-266 230 237 0
266 -230 0
266 -237 0
267 5 174 211 -268 0
-267 268 0
-267 -5 0
-267 -211 0
-267 -174 0
268 -216 219 -272 0
268 216 219 -269 0
-268 -219 0
-268 -216 272 0
-268 216 269 0
269 217 -270 0
269 -217 -271 0
-269 -217 271 0
-269 217 270 0
270 -461 225 0
270 -459 -225 0
-270 461 225 0
-270 459 -225 0
271 -453 225 0
271 -451 -225 0
-271 453 225 0
-271 451 -225 0
272 217 -273 0
272 -217 -274 0
-272 -217 274 0
-272 217 273 0
273 -445 225 0
273 -443 -225 0
-273 445 225 0
-273 443 -225 0
274 -437 225 0
274 -435 -225 0
-274 437 225 0
-274 435 -225 0
275 217 229 -276 0
275 -217 229 -274 0
-275 -229 0
-275 -217 274 0
-275 217 276 0
276 218 -270 0
276 -218 -271 0
-276 -218 271 0
-276 218 270 0
-277 278 295 300 0
-277 278 -295 -300 0
277 -278 0
277 -295 300 0
277 295 -300 0
-278 279 287 -289 -294 0
-278 -279 -287 -289 -294 0
-278 279 287 289 294 0
-278 -279 -287 289 294 0
278 279 -287 0
278 -279 287 0
278 289 -294 0
278 -289 294 0
279 5 174 211 -280 0
-279 280 0
-279 -5 0
-279 -211 0
-279 -174 0
280 -216 219 -284 0
280 216 219 -281 0
-280 -219 0
-280 -216 284 0
-280 216 281 0
281 217 -282 0
281 -217 -283 0
-281 -217 283 0
-281 217 282 0
282 -463 225 0
282 -461 -225 0
-282 463 225 0
-282 461 -225 0
283 -455 225 0
283 -453 -225 0
-283 455 225 0
-283 453 -225 0
284 217 -285 0
284 -217 -286 0
-284 -217 286 0
-284 217 285 0
285 -447 225 0
285 -445 -225 0
-285 447 225 0
-285 445 -225 0
286 -439 225 0
286 -437 -225 0
-286 439 225 0
-286 437 -225 0
287 217 229 -288 0
287 -217 229 -286 0
-287 -229 0
-287 -217 286 0
-287 217 288 0
288 218 -282 0
288 -218 -283 0
-288 -218 283 0
-288 218 282 0
289 5 174 211 -290 0
-289 290 0
-289 -5 0
-289 -211 0
-289 -174 0
290 215 -291 0
-290 -215 0
-290 291 0
291 217 -292 0
291 -217 -293 0
-291 -217 293 0
-291 217 292 0
292 -441 225 0
292 -439 -225 0
-292 441 225 0
-292 439 -225 0
293 -433 225 0
-293 433 0
-293 -225 0
294 -218 228 -293 0
294 218 228 -292 0
-294 -228 0
-294 -218 293 0
-294 218 292 0
295 5 174 211 -296 0
-295 296 0
-295 -5 0
-295 -211 0
-295 -174 0
296 215 -297 0
-296 -215 0
-296 297 0
297 217 -298 0
297 -217 -299 0
-297 -217 299 0
-297 217 298 0
298 -443 225 0
298 -441 -225 0
-298 443 225 0
-298 441 -225 0
299 -435 225 0
299 -433 -225 0
-299 435 225 0
-299 433 -225 0
300 -218 228 -299 0
300 218 228 -298 0
-300 -228 0
-300 -218 299 0
-300 218 298 0
-301 302 307 308 321 0
-301 -302 -307 308 321 0
301 -321 0
301 -302 307 0
301 -308 0
301 302 -307 0
302 5 174 211 -303 0
-302 303 0
-302 -5 0
-302 -211 0
-302 -174 0
303 215 -304 0
-303 -215 0
-303 304 0
304 217 -305 0
304 -217 -306 0
-304 -217 306 0
-304 217 305 0
305 -442 225 0
305 -440 -225 0
-305 442 225 0
-305 440 -225 0
306 -434 225 0
306 -432 -225 0
-306 434 225 0
-306 432 -225 0
307 -218 228 -306 0
307 218 228 -305 0
-307 -228 0
-307 -218 306 0
-307 218 305 0
-308 -5 309 0
-308 309 317 0
-308 309 -320 0
308 -309 0
308 5 -317 320 0
-309 310 -316 0
-309 310 314 0
-309 -5 310 0
309 -310 0
309 5 -314 316 0
310 311 -313 0
310 -311 313 0
-310 -311 -313 0
-310 311 313 0
311 5 174 211 -312 0
-311 312 0
-311 -5 0
-311 -211 0
-311 -174 0
312 215 -272 0
-312 -215 0
-312 272 0
313 -218 228 -274 0
313 218 228 -273 0
-313 -228 0
-313 -218 274 0
-313 218 273 0
314 174 211 215 -315 0
-314 315 0
-314 -174 0
-314 -215 0
-314 -211 0
315 217 -274 0
-315 -217 0
-315 274 0
316 218 228 -274 0
-316 274 0
-316 -228 0
-316 -218 0
317 174 211 215 -318 0
-317 318 0
-317 -174 0
-317 -215 0
-317 -211 0
318 217 -319 0
-318 -217 0
-318 319 0
319 -438 225 0
319 -436 -225 0
-319 438 225 0
-319 436 -225 0
320 218 228 -319 0
-320 319 0
-320 -228 0
-320 -218 0
-321 322 336 340 341 0
-321 322 -336 -340 341 0
321 -341 0
321 -336 340 0
321 -322 0
321 336 -340 0
-322 323 326 329 334 0
-322 323 326 -329 -334 0
322 -326 0
322 329 -334 0
322 -323 0
322 -329 334 0
323 5 174 -324 325 0
-323 324 0
-323 -325 0
-323 -5 0
-323 -174 0
324 211 217 215 -293 0
-324 293 0
-324 -211 0
-324 -215 0
-324 -217 0
325 218 265 266 -293 0
-325 -218 0
-325 293 0
-325 -266 0
-325 -265 0
326 -228 -327 0
326 306 -327 0
326 -218 -327 0
-326 327 0
-326 218 228 -306 0
327 5 174 211 -328 0
-327 328 0
-327 -5 0
-327 -211 0
-327 -174 0
328 217 215 -306 0
-328 306 0
-328 -215 0
-328 -217 0
329 5 174 211 -330 0
-329 330 0
-329 -5 0
-329 -211 0
-329 -174 0
330 219 -331 0
-330 -219 0
-330 331 0
-331 -217 -216 0
-331 216 332 0
-331 -216 293 0
331 216 -332 0
331 217 -216 -293 0
-332 217 333 0
-332 -217 292 0
332 -217 -292 0
332 217 -333 0
333 -449 225 0
333 -447 -225 0
-333 449 225 0
-333 447 -225 0
334 -217 228 0
334 228 -335 0
-334 -228 0
-334 217 335 0
335 -218 -292 0
335 218 -333 0
-335 218 333 0
-335 -218 292 0
336 5 174 211 -337 0
-336 337 0
-336 -5 0
-336 -211 0
-336 -174 0
337 215 -338 0
-337 -215 0
-337 338 0
338 -217 -319 0
338 217 -339 0
-338 217 339 0
-338 -217 319 0
339 -446 225 0
339 -444 -225 0
-339 446 225 0
-339 444 -225 0
340 218 228 -339 0
340 -218 228 -319 0
-340 -228 0
-340 -218 319 0
-340 218 339 0
-341 342 347 -349 -351 0
-341 -342 -347 -349 -351 0
-341 342 347 349 351 0
-341 -342 -347 349 351 0
341 342 -347 0
341 -342 347 0
341 349 -351 0
341 -349 351 0
342 5 174 211 -343 0
-342 343 0
-342 -5 0
-342 -211 0
-342 -174 0
343 216 219 -344 0
343 -216 219 -338 0
-343 -219 0
-343 -216 338 0
-343 216 344 0
344 217 -345 0
344 -217 -346 0
-344 -217 346 0
-344 217 345 0
345 -462 225 0
345 -460 -225 0
-345 462 225 0
-345 460 -225 0
346 -454 225 0
346 -452 -225 0
-346 454 225 0
-346 452 -225 0
347 217 229 -348 0
347 -217 229 -319 0
-347 -229 0
-347 -217 319 0
-347 217 348 0
348 218 -345 0
348 -218 -346 0
-348 -218 346 0
-348 218 345 0
349 5 174 211 -350 0
-349 350 0
-349 -5 0
-349 -211 0
-349 -174 0
350 215 -284 0
-350 -215 0
-350 284 0
351 -218 228 -286 0
351 218 228 -285 0
-351 -228 0
-351 -218 286 0
-351 218 285 0
-352 353 358 360 374 0
-352 -353 -358 360 374 0
352 -374 0
352 -353 358 0
352 -360 0
352 353 -358 0
353 5 174 211 -354 0
-353 354 0
-353 -5 0
-353 -211 0
-353 -174 0
354 219 -355 357 0
-354 -219 0
-354 -357 0
-354 355 0
-355 -217 243 0
-355 217 218 356 0
355 217 -356 0
355 -217 -243 0
355 217 -218 0
356 -456 225 0
356 -454 -225 0
-356 456 225 0
-356 454 -225 0
357 217 -218 224 0
-357 -217 0
-357 218 0
-357 -224 0
358 217 229 -359 0
358 -217 -226 229 0
-358 -229 0
-358 -217 226 0
-358 217 359 0
359 -218 -243 0
359 218 -356 0
-359 218 356 0
-359 -218 243 0
-360 361 366 -368 -372 0
-360 -361 -366 -368 -372 0
-360 361 366 368 372 0
-360 -361 -366 368 372 0
360 361 -366 0
360 -361 366 0
360 368 -372 0
360 -368 372 0
361 5 174 211 -362 0
-361 362 0
-361 -5 0
-361 -211 0
-361 -174 0
362 216 219 -364 0
362 -216 219 -363 0
-362 -219 0
-362 216 364 0
-362 -216 363 0
363 217 -306 0
-363 -217 0
-363 306 0
-364 217 365 0
-364 -217 305 0
364 -217 -305 0
364 217 -365 0
365 -450 225 0
365 -448 -225 0
-365 450 225 0
-365 448 -225 0
366 -217 228 0
366 228 -367 0
-366 -228 0
-366 217 367 0
367 -218 -305 0
367 218 -365 0
-367 218 365 0
-367 -218 305 0
368 5 174 211 -369 0
-368 369 0
-368 -5 0
-368 -211 0
-368 -174 0
369 216 219 -370 0
369 -216 219 -304 0
-369 -219 0
-369 -216 304 0
-369 216 370 0
370 -217 -365 0
370 217 -371 0
-370 217 371 0
-370 -217 365 0
371 -458 225 0
371 -456 -225 0
-371 458 225 0
-371 456 -225 0
372 217 229 -373 0
372 -217 229 -306 0
-372 -229 0
-372 -217 306 0
-372 217 373 0
373 -218 -365 0
373 218 -371 0
-373 218 371 0
-373 -218 365 0
-374 -375 -379 381 0
-374 375 379 381 0
374 -381 0
374 -375 379 0
374 375 -379 0
375 5 174 211 -376 0
-375 376 0
-375 -5 0
-375 -211 0
-375 -174 0
376 219 -377 0
-376 -219 0
-376 377 0
-377 -217 -216 0
-377 216 378 0
-377 -216 319 0
377 216 -378 0
377 217 -216 -319 0
-378 217 346 0
-378 -217 339 0
378 -217 -339 0
378 217 -346 0
379 -217 228 0
379 228 -380 0
-379 -228 0
-379 217 380 0
380 -218 -339 0
380 218 -346 0
-380 218 346 0
-380 -218 339 0
-381 382 386 -388 -394 0
-381 -382 -386 -388 -394 0
-381 382 386 388 394 0
-381 -382 -386 388 394 0
381 382 -386 0
381 -382 386 0
381 388 -394 0
381 -388 394 0
382 5 174 211 -383 0
-382 383 0
-382 -5 0
-382 -211 0
-382 -174 0
383 216 219 -384 0
383 -216 219 -291 0
-383 -219 0
-383 -216 291 0
-383 216 384 0
384 -217 -333 0
384 217 -385 0
-384 217 385 0
-384 -217 333 0
385 -457 225 0
385 -455 -225 0
-385 457 225 0
-385 455 -225 0
386 217 229 -387 0
386 -217 229 -293 0
-386 -229 0
-386 -217 293 0
-386 217 387 0
387 -218 -333 0
387 218 -385 0
-387 218 385 0
-387 -218 333 0
388 5 174 211 -389 0
-388 389 0
-388 -5 0
-388 -211 0
-388 -174 0
389 219 -390 393 0
-389 -219 0
-389 -393 0
-389 390 0
-390 -217 392 0
-390 217 218 391 0
390 217 -218 0
390 -217 -392 0
390 217 -391 0
391 -459 225 0
391 -457 -225 0
-391 459 225 0
-391 457 -225 0
392 -451 225 0
392 -449 -225 0
-392 451 225 0
-392 449 -225 0
393 217 -218 298 0
-393 -217 0
-393 218 0
-393 -298 0
394 217 229 -395 0
394 -217 229 -299 0
-394 -229 0
-394 -217 299 0
-394 217 395 0
395 218 -391 0
395 -218 -392 0
-395 -218 392 0
-395 218 391 0
-396 397 402 404 417 0
-396 -397 -402 404 417 0
396 -417 0
396 -397 402 0
396 -404 0
396 397 -402 0
397 175 211 -398 401 0
-397 -401 0
-397 -175 0
-397 398 0
-397 -211 0
398 -216 219 -400 0
398 216 219 -399 0
-398 -219 0
-398 -216 400 0
-398 216 399 0
-399 217 258 0
-399 -217 250 0
399 -217 -250 0
399 217 -258 0
400 217 -251 0
-400 -217 0
-400 251 0
-401 5 207 0
401 -5 0
401 -207 0
402 -217 228 0
402 228 -403 0
-402 -228 0
-402 217 403 0
403 -218 -250 0
403 218 -258 0
-403 218 258 0
-403 -218 250 0
-404 405 409 -411 -415 0
-404 -405 -409 -411 -415 0
-404 405 409 411 415 0
-404 -405 -409 411 415 0
404 405 -409 0
404 -405 409 0
404 411 -415 0
404 -411 415 0
405 5 174 211 -406 0
-405 406 0
-405 -5 0
-405 -211 0
-405 -174 0
406 219 -407 0
-406 -219 0
-406 407 0
-407 -217 -216 0
-407 216 408 0
-407 -216 299 0
407 216 -408 0
407 217 -216 -299 0
-408 217 392 0
-408 -217 298 0
408 -217 -298 0
408 217 -392 0
409 -217 228 0
409 228 -410 0
-409 -228 0
-409 217 410 0
410 -218 -298 0
410 218 -392 0
-410 218 392 0
-410 -218 298 0
411 5 174 211 -412 0
-411 412 0
-411 -5 0
-411 -211 0
-411 -174 0
412 -216 219 -414 0
412 216 219 -413 0
-412 -219 0
-412 -216 414 0
-412 216 413 0
-413 -217 285 0
-413 217 283 0
413 217 -283 0
413 -217 -285 0
414 217 -286 0
-414 -217 0
-414 286 0
415 -217 228 0
415 228 -416 0
-415 -228 0
-415 217 416 0
416 218 -283 0
416 -218 -285 0
-416 -218 285 0
-416 218 283 0
-417 418 421 423 429 0
-417 -418 -421 423 429 0
417 -429 0
417 -418 421 0
417 -423 0
417 418 -421 0
418 175 211 401 -419 0
-418 419 0
-418 -175 0
-418 -401 0
-418 -211 0
419 216 219 -420 0
419 -216 219 -315 0
-419 -219 0
-419 216 420 0
-419 -216 315 0
-420 -217 273 0
-420 217 271 0
420 217 -271 0
420 -217 -273 0
421 -217 228 0
421 228 -422 0
-421 -228 0
-421 217 422 0
422 218 -271 0
422 -218 -273 0
-422 -218 273 0
-422 218 271 0
-423 424 -428 0
-423 424 427 0
-423 -5 424 0
423 -424 0
423 5 -427 428 0
424 -228 -425 0
424 299 -425 0
424 -218 -425 0
-424 425 0
-424 218 228 -299 0
425 5 174 211 -426 0
-425 426 0
-425 -5 0
-425 -211 0
-425 -174 0
426 217 215 -299 0
-426 299 0
-426 -215 0
-426 -217 0
427 174 211 215 -414 0
-427 414 0
-427 -174 0
-427 -215 0
-427 -211 0
428 218 228 -286 0
-428 286 0
-428 -228 0
-428 -218 0
429 -228 -430 0
429 251 -430 0
429 -218 -430 0
-429 430 0
-429 218 228 -251 0
430 5 174 211 -431 0
-430 431 0
-430 -5 0
-430 -211 0
-430 -174 0
431 217 215 -251 0
-431 251 0
-431 -215 0
-431 -217 0
-496 0
2 0

